722135.0
1338
5 6 7 8 9 10 12 13 15 16 17 20 21 23 25 27 28 32 34 35 36 37 39 40 41 42 43 44 45 46 47 49 50 52 54 55 56 57 58 60 61 63 64 65 66 67 68 70 71 72 73 74 75 76 77 78 80 82 83 84 85 86 87 89 90 91 93 94 95 99 